NAME: PointSet_Angle_25_2
TYPE: TSP
COMMENT: Points chosen discrete uniformly at random out of ${0, \ldots, 500}^2$.
DIMENSION: 25
EDGE_WEIGHT_TYPE: EUC_2D
NODE_COORD_SECTION
1 177 60
2 188 244
3 335 109
4 439 22
5 291 263
6 164 155
7 87 466
8 232 476
9 471 223
10 375 332
11 327 226
12 153 389
13 381 427
14 286 75
15 322 305
16 438 245
17 365 125
18 235 446
19 481 174
20 468 272
21 437 378
22 173 23
23 89 405
24 499 306
25 374 119
EOF
